Gurobi Optimizer version 9.1.2 build v9.1.2rc0 (linux64)
Thread count: 36 physical cores, 72 logical processors, using up to 32 threads
Optimize a model with 12 rows, 57 columns and 590 nonzeros
Model fingerprint: 0xf32eec78
Model has 47 quadratic constraints
Coefficient statistics:
  Matrix range     [2e-05, 3e+00]
  QMatrix range    [1e+00, 1e+00]
  QLMatrix range   [1e+00, 1e+00]
  Objective range  [8e-03, 7e-01]
  Bounds range     [1e+00, 1e+00]
  RHS range        [1e+00, 1e+00]
Presolve removed 9 rows and 0 columns

Continuous model is non-convex -- solving as a MIP.

Presolve removed 9 rows and 0 columns
Presolve time: 0.00s
Presolved: 189 rows, 57 columns, 443 nonzeros
Presolved model has 47 bilinear constraint(s)
Variable types: 57 continuous, 0 integer (0 binary)

Root relaxation: objective -1.743721e+00, 44 iterations, 0.00 seconds

    Nodes    |    Current Node    |     Objective Bounds      |     Work
 Expl Unexpl |  Obj  Depth IntInf | Incumbent    BestBd   Gap | It/Node Time

     0     0   -1.74372    0   38          -   -1.74372      -     -    0s
H    0     0                       0.6147548   -1.74372   384%     -    0s
     0     0   -1.64739    0    1    0.61475   -1.64739   368%     -    0s
H    0     0                      -1.6450460   -1.64739  0.14%     -    0s
     0     0     cutoff    0        -1.64505   -1.64505  0.00%     -    0s

Cutting planes:
  RLT: 25
  BQP: 3

Explored 1 nodes (76 simplex iterations) in 0.01 seconds
Thread count was 32 (of 72 available processors)

Solution count 2: -1.64505 0.614755 
No other solutions better than -1.64505

Optimal solution found (tolerance 1.00e-04)
Best objective -1.645045978473e+00, best bound -1.645045978473e+00, gap 0.0000%

User-callback calls 78, time in user-callback 0.00 sec
Gurobi Optimizer version 9.1.2 build v9.1.2rc0 (linux64)
Thread count: 36 physical cores, 72 logical processors, using up to 32 threads
Optimize a model with 60 rows, 312 columns and 16100 nonzeros
Model fingerprint: 0xdb1b807f
Model has 262 quadratic constraints
Coefficient statistics:
  Matrix range     [4e-07, 7e+00]
  QMatrix range    [1e+00, 1e+00]
  QLMatrix range   [1e+00, 1e+00]
  Objective range  [5e-03, 1e+00]
  Bounds range     [1e+00, 1e+00]
  RHS range        [1e+00, 1e+00]
Presolve removed 17 rows and 0 columns

Continuous model is non-convex -- solving as a MIP.

Presolve removed 17 rows and 0 columns
Presolve time: 0.01s
Presolved: 1079 rows, 312 columns, 12824 nonzeros
Presolved model has 262 bilinear constraint(s)
Variable types: 312 continuous, 0 integer (0 binary)

Root relaxation: objective -2.744938e+01, 338 iterations, 0.02 seconds

    Nodes    |    Current Node    |     Objective Bounds      |     Work
 Expl Unexpl |  Obj  Depth IntInf | Incumbent    BestBd   Gap | It/Node Time

     0     0  -27.44938    0   95          -  -27.44938      -     -    0s
     0     0  -26.06146    0   69          -  -26.06146      -     -    0s
     0     0  -25.98711    0   69          -  -25.98711      -     -    0s
     0     0  -25.94186    0   75          -  -25.94186      -     -    0s
     0     0  -25.94063    0   69          -  -25.94063      -     -    0s
     0     0  -25.93421    0   75          -  -25.93421      -     -    0s
     0     0  -25.93174    0   74          -  -25.93174      -     -    0s
     0     0  -25.93137    0  118          -  -25.93137      -     -    0s
     0     0  -25.93086    0   69          -  -25.93086      -     -    0s
     0     0  -25.93058    0   74          -  -25.93058      -     -    0s
     0     0  -25.92899    0  122          -  -25.92899      -     -    0s
     0     0  -25.92893    0   74          -  -25.92893      -     -    0s
     0     0  -25.92893    0   74          -  -25.92893      -     -    0s
H    0     0                     -23.7421987  -25.92893  9.21%     -    0s
     0     2  -25.92893    0   74  -23.74220  -25.92893  9.21%     -    0s
* 1096   991              42     -23.7422160  -25.04087  5.47%  55.1    1s
* 1763  1610              48     -24.4884975  -25.04087  2.26%  44.4    1s
* 2058  1669              52     -24.5108413  -25.03308  2.13%  42.7    1s
* 2271  1701              52     -24.5711601  -24.98408  1.68%  42.0    1s
* 2272  1701              53     -24.5711607  -24.98408  1.68%  42.0    1s
* 2923  1741              62     -24.5784148  -24.98408  1.65%  40.0    2s
* 2980  1741              53     -24.5845549  -24.98408  1.63%  39.8    2s
* 2984  1741              55     -24.5845558  -24.98408  1.63%  39.7    2s
* 4085  1858              50     -24.5857447  -24.98313  1.62%  36.1    2s
* 4086  1858              50     -24.5860378  -24.98313  1.62%  36.1    2s
* 5260  1868              44     -24.5863546  -24.89059  1.24%  33.2    2s
* 5261  1868              44     -24.5863587  -24.89059  1.24%  33.2    2s
* 5295  1868              61     -24.5864533  -24.89059  1.24%  33.1    2s
* 5297  1868              62     -24.5864868  -24.89059  1.24%  33.1    2s
* 5304  1868              43     -24.5869052  -24.89059  1.24%  33.1    2s
* 5305  1868              43     -24.5869070  -24.89059  1.24%  33.1    2s
* 5557  1877              47     -24.5870975  -24.89059  1.23%  32.7    3s
* 5558  1877              46     -24.5872124  -24.89059  1.23%  32.6    3s
* 5560  1877              46     -24.5872572  -24.89059  1.23%  32.6    3s
* 5611  1976              49     -24.5873575  -24.77317  0.76%  32.5    3s
* 5614  1976              48     -24.5873913  -24.77317  0.76%  32.5    3s
* 5662  1976              72     -24.6010453  -24.77317  0.70%  32.4    3s
* 5663  1976              72     -24.6010717  -24.77317  0.70%  32.4    3s
*10280   681              53     -24.6011100  -24.77317  0.70%  33.3    4s
 11122   858     cutoff   22       -24.60111  -24.77317  0.70%  32.7    5s
*13797  1232              61     -24.6011224  -24.72808  0.52%  30.5    5s
*13841  1232              61     -24.6021459  -24.72787  0.51%  30.5    5s
*13842  1232              61     -24.6022031  -24.72787  0.51%  30.5    5s
*13845  1232              61     -24.6022219  -24.72787  0.51%  30.5    5s
*14342  1315              52     -24.6027289  -24.72148  0.48%  30.0    5s
*14981  1401              62     -24.6102266  -24.71227  0.41%  29.5    5s
*15460  1435              63     -24.6102613  -24.70955  0.40%  29.1    5s
*15829  1460              58     -24.6104114  -24.69929  0.36%  28.9    5s
*15835  1460              59     -24.6104117  -24.69929  0.36%  28.9    5s
*16666  1652              61     -24.6105318  -24.69574  0.35%  28.3    5s
*16667  1652              61     -24.6106021  -24.69574  0.35%  28.3    5s
*16727  1652              58     -24.6110542  -24.69574  0.34%  28.2    5s
*16728  1652              58     -24.6110843  -24.69574  0.34%  28.2    5s
*16731  1652              58     -24.6111001  -24.69574  0.34%  28.2    5s
*17796  1901              64     -24.6114196  -24.69574  0.34%  27.5    6s
*18310  2026              66     -24.6120376  -24.69574  0.34%  27.3    6s
*18311  2026              66     -24.6121047  -24.69574  0.34%  27.3    6s
*18405  2026              57     -24.6126698  -24.69574  0.34%  27.2    6s
*18831  2026              62     -24.6170962  -24.69574  0.32%  26.9    6s
*18832  2026              62     -24.6171654  -24.69574  0.32%  26.9    6s
*18911  1855              66     -24.6188578  -24.68868  0.28%  26.8    6s
*18912  1855              66     -24.6188579  -24.68868  0.28%  26.8    6s
*20285  1918              60     -24.6189065  -24.67881  0.24%  26.0    6s
*20286  1918              60     -24.6189550  -24.67881  0.24%  26.0    6s
*20702  1918              60     -24.6232861  -24.67881  0.23%  25.8    6s
*20703  1918              60     -24.6233041  -24.67881  0.23%  25.8    6s
*20707  1918              60     -24.6233068  -24.67881  0.23%  25.8    6s
*20708  1918              60     -24.6233241  -24.67881  0.23%  25.8    6s
*21005  1818              69     -24.6242650  -24.67505  0.21%  25.6    6s
*21006  1818              69     -24.6243230  -24.67505  0.21%  25.6    6s
*21008  1818              69     -24.6247341  -24.67505  0.20%  25.6    6s
*21009  1818              69     -24.6249421  -24.67505  0.20%  25.6    6s
*21012  1818              69     -24.6250165  -24.67505  0.20%  25.6    6s
*21775  1738              77     -24.6285115  -24.67112  0.17%  25.2    6s
*21778  1738              77     -24.6285122  -24.67112  0.17%  25.2    6s
*21850  1738              76     -24.6285124  -24.67112  0.17%  25.2    6s
*24458  1614              61     -24.6285138  -24.65663  0.11%  24.2    7s
*27996  1556              65     -24.6285372  -24.64383  0.06%  22.7    7s
*34531  1335              71     -24.6285390  -24.63248  0.02%  20.1    8s

Explored 37767 nodes (719611 simplex iterations) in 9.27 seconds
Thread count was 32 (of 72 available processors)

Solution count 10: -24.6285 -24.6285 -24.6285 ... -24.6243

Optimal solution found (tolerance 1.00e-04)
Best objective -2.462853525150e+01, best bound -2.463037437649e+01, gap 0.0075%

User-callback calls 76487, time in user-callback 0.02 sec



objective value: -24.628535251498775
objective bound: -24.630374376493606
x_opt: [1.0, 0.9139057705530717, 0.0, 0.3438120877703575, 0.0, 0.0, 1.0, 0.0, 0.0, 0.0, 1.0, 0.0, 1.0, 1.0, 0.43539423939700317, 1.0, 0.0, 1.0, 0.0, 0.0, 0.0, 0.22337285656872538, 0.0, 0.5541055778856178, 0.0, 0.6344967331424244, 0.0, 1.0, 0.0, 0.0, 1.0, 1.0, 0.0, 0.6014876776521979, 1.0, 0.9082043503564297, 0.0, 1.0, 0.0, 1.0, 1.0, 0.0, 0.9313624868111904, 0.09404379391039396, 2.3295922678270025e-19, 1.212078329886918e-20, 0.41883044531641545, 0.40036337838213937, 0.17563257430440649, 2.1300693618216923e-20]
GUROBI solution time: 9.27357006072998




